python/teste/teste3
3 3
2 6 1 1 0 1
0 4 2 9 1 8
0 4 2 2 1 2
